p cnf 12 23
-12 -10 1 0
-12 8 3 0
12 7 6 0
-12 5 -4 0
-12 4 3 0
-11 10 -6 0
-11 -8 1 0
11 7 -6 0
11 -7 2 0
-11 -6 3 0
10 9 -1 0
10 -8 2 0
10 5 3 0
9 -7 -5 0
-9 -5 -1 0
9 -3 -1 0
9 2 1 0
8 -3 -1 0
-7 -5 2 0
7 -4 1 0
-6 -3 -2 0
4 -3 -2 0
-4 3 -2 0
